c User generated cnf file
p cnf 12 26
-8 8 3 0 
8 -6 3 0 
12 11 -12 0 
9 -7 1 0 
6 12 -9 0 
7 -3 5 0 
3 -8 3 0 
-7 2 4 0 
-5 12 5 0 
10 10 -6 0 
1 8 -12 0 
-10 12 6 0 
-9 5 12 0 
9 -7 8 0 
-1 3 4 0 
1 -11 8 0 
7 5 -10 0 
11 4 -12 0 
4 -12 3 0 
2 6 -4 0 
10 7 -8 0 
4 11 -10 0 
8 -6 10 0 
11 11 -3 0 
3 -3 10 0 
1 2 -4 0 
